p cnf 19 7
e 1 2 0
a 3 0
e 4 0
a 5 6 0
e 7 0
a 8 0
e 9 0
a 10 0
e 11 0
a 12 13 0
e 14 15 0
a 16 17 0
e 18 0
a 19 0
12 9 -15 -6 0
-2 6 7 -5 0
-4 14 1 0
-5 12 0
-2 6 -17 -4 0
-3 7 -6 -17 0
-4 12 -10 13 5 0
